<number of tasks>
89

<cycle time>
12

<task times>
1 1
2 2
3 3
4 4
5 5
6 6
7 7
8 8
9 9
10 10
11 1
12 2
13 3
14 4
15 5
16 6
17 7
18 8
19 9
20 10
21 1
22 2
23 3
24 4
25 5
26 6
27 7
28 8
29 9
30 10
31 1
32 2
33 3
34 4
35 5
36 6
37 7
38 8
39 9
40 10
41 1
42 2
43 3
44 4
45 5
46 6
47 7
48 8
49 9
50 10
51 1
52 2
53 3
54 4
55 5
56 6
57 7
58 8
59 9
60 10
61 1
62 2
63 3
64 4
65 5
66 6
67 7
68 8
69 9
70 10
71 1
72 2
73 3
74 4
75 5
76 6
77 7
78 8
79 9
80 10
81 1
82 2
83 3
84 4
85 5
86 6
87 7
88 8
89 9

<precedence relations>
1,2
2,3
3,4
4,5
4,6
4,7
4,8
4,9
5,10
6,11
7,12
8,18
9,18
10,14
11,12
12,13
13,14
14,15
14,16
15,17
16,54
17,18
18,19
18,20
19,22
20,21
20,28
21,54
22,23
23,24
24,25
25,26
25,27
25,29
26,37
27,33
28,29
29,31
30,54
31,32
32,33
33,34
34,35
35,36
35,37
36,38
37,38
38,39
39,40
39,41
39,42
39,43
40,44
41,53
42,53
43,45
44,52
45,46
46,47
47,48
47,49
49,50
50,51
51,52
52,53
53,68
53,69
53,70
53,71
54,55
55,56
56,57
57,58
57,59
57,60
57,61
57,62
57,63
57,64
57,65
57,66
58,67
59,67
60,67
61,67
62,67
63,67
64,67
65,67
66,67
67,73
68,72
69,72
70,72
71,73
72,78
72,80
73,74
74,75
74,76
75,77
76,81
77,78
78,79
79,81
80,81
81,82
81,84
81,85
82,83
83,86
84,86
85,86
86,87
87,88
87,89

<setup times forward>
1,30:1
2,30:1
3,30:1
4,6:1
4,30:1
5,6:1
5,11:1
5,12:1
5,13:1
5,30:1
6,5:1
6,7:1
6,8:1
6,9:1
6,10:1
7,6:1
7,11:1
7,12:1
7,30:1
8,6:1
8,11:1
8,12:1
8,13:1
8,15:1
8,17:1
8,18:1
8,30:1
9,6:1
9,11:1
9,12:1
9,13:1
9,15:1
9,17:1
9,18:1
9,30:1
10,6:1
10,11:1
10,12:1
10,13:1
10,30:1
11,5:1
11,7:1
11,8:1
11,9:1
11,10:1
12,5:1
12,8:1
12,9:1
12,10:1
13,5:1
13,8:1
13,9:1
13,10:1
13,14:1
14,15:1
14,30:1
15,8:1
15,9:1
15,16:1
16,15:1
16,17:1
16,18:1
16,19:1
16,22:1
16,23:1
16,24:1
16,25:1
16,26:1
16,30:1
16,34:1
16,35:1
16,37:1
16,40:1
16,42:1
16,45:1
16,47:1
16,48:1
16,49:1
16,50:1
16,51:1
16,52:1
16,80:1
17,8:1
17,9:1
17,16:1
18,16:1
18,20:1
19,16:1
19,20:1
19,21:1
19,28:1
19,54:1
19,55:1
19,56:1
19,58:1
19,59:1
19,62:1
19,64:1
19,66:1
19,67:1
20,19:1
20,22:1
20,23:1
20,24:1
20,25:1
20,26:1
20,30:1
21,19:1
21,22:1
21,23:1
21,24:1
21,25:1
21,26:1
21,30:1
21,34:1
21,35:1
21,37:1
21,40:1
21,42:1
21,45:1
21,47:1
21,48:1
21,49:1
21,50:1
21,51:1
21,52:1
21,80:1
22,16:1
22,20:1
22,21:1
22,28:1
22,54:1
22,55:1
22,56:1
22,58:1
22,59:1
22,62:1
22,64:1
22,66:1
22,67:1
23,16:1
23,20:1
23,21:1
23,28:1
23,54:1
23,55:1
23,56:1
23,58:1
23,59:1
23,62:1
23,64:1
23,66:1
23,67:1
24,16:1
24,20:1
24,21:1
24,28:1
24,54:1
24,55:1
24,56:1
24,58:1
24,59:1
24,62:1
24,64:1
24,66:1
24,67:1
25,16:1
25,20:1
25,21:1
25,27:1
25,28:1
25,29:1
25,54:1
25,55:1
25,56:1
25,58:1
25,59:1
25,62:1
25,64:1
25,66:1
25,67:1
26,16:1
26,20:1
26,21:1
26,27:1
26,28:1
26,29:1
26,31:1
26,32:1
26,33:1
26,36:1
26,54:1
26,55:1
26,56:1
26,58:1
26,59:1
26,62:1
26,64:1
26,66:1
26,67:1
27,26:1
27,30:1
27,57:1
27,60:1
27,61:1
27,63:1
27,65:1
28,19:1
28,22:1
28,23:1
28,24:1
28,25:1
28,26:1
28,30:1
28,57:1
28,60:1
28,61:1
28,63:1
28,65:1
29,26:1
29,30:1
29,57:1
29,60:1
29,61:1
29,63:1
29,65:1
30,1:1
30,2:1
30,3:1
30,4:1
30,5:1
30,7:1
30,8:1
30,9:1
30,10:1
30,14:1
30,16:1
30,20:1
30,21:1
30,27:1
30,28:1
30,29:1
30,31:1
30,32:1
30,33:1
30,36:1
30,38:1
30,39:1
30,41:1
30,43:1
30,44:1
30,46:1
30,53:1
30,54:1
30,68:1
30,69:1
30,70:1
30,71:1
30,72:1
31,26:1
31,30:1
31,57:1
31,60:1
31,61:1
31,63:1
31,65:1
32,26:1
32,30:1
32,57:1
32,60:1
32,61:1
32,63:1
32,65:1
33,26:1
33,30:1
33,34:1
33,57:1
33,60:1
33,61:1
33,63:1
33,65:1
34,16:1
34,21:1
34,54:1
34,55:1
34,56:1
34,58:1
34,59:1
34,62:1
34,64:1
34,66:1
34,67:1
35,16:1
35,21:1
35,36:1
35,54:1
35,55:1
35,56:1
35,58:1
35,59:1
35,62:1
35,64:1
35,66:1
35,67:1
36,26:1
36,30:1
36,37:1
36,57:1
36,60:1
36,61:1
36,63:1
36,65:1
37,16:1
37,21:1
37,36:1
37,38:1
37,54:1
37,55:1
37,56:1
37,58:1
37,59:1
37,62:1
37,64:1
37,66:1
37,67:1
38,30:1
38,57:1
38,60:1
38,61:1
38,63:1
38,65:1
39,30:1
39,40:1
39,42:1
39,57:1
39,60:1
39,61:1
39,63:1
39,65:1
40,16:1
40,21:1
40,41:1
40,43:1
40,44:1
40,46:1
40,54:1
40,55:1
40,56:1
40,58:1
40,59:1
40,62:1
40,64:1
40,66:1
40,67:1
41,30:1
41,40:1
41,42:1
41,45:1
41,47:1
41,48:1
41,49:1
41,50:1
41,51:1
41,52:1
41,57:1
41,60:1
41,61:1
41,63:1
41,65:1
42,16:1
42,21:1
42,41:1
42,43:1
42,44:1
42,46:1
42,53:1
42,54:1
42,55:1
42,56:1
42,58:1
42,59:1
42,62:1
42,64:1
42,66:1
42,67:1
43,30:1
43,40:1
43,42:1
43,45:1
43,57:1
43,60:1
43,61:1
43,63:1
43,65:1
44,30:1
44,42:1
44,45:1
44,47:1
44,48:1
44,49:1
44,50:1
44,51:1
44,52:1
44,57:1
44,60:1
44,61:1
44,63:1
44,65:1
45,16:1
45,21:1
45,41:1
45,44:1
45,46:1
45,54:1
45,55:1
45,56:1
45,58:1
45,59:1
45,62:1
45,64:1
45,66:1
45,67:1
46,30:1
46,40:1
46,42:1
46,47:1
46,57:1
46,60:1
46,61:1
46,63:1
46,65:1
47,16:1
47,21:1
47,41:1
47,44:1
47,54:1
47,55:1
47,56:1
47,58:1
47,59:1
47,62:1
47,64:1
47,66:1
47,67:1
48,16:1
48,21:1
48,41:1
48,44:1
48,53:1
48,54:1
48,55:1
48,56:1
48,58:1
48,59:1
48,62:1
48,64:1
48,66:1
48,67:1
48,68:1
48,69:1
48,70:1
48,71:1
48,72:1
48,73:1
48,74:1
48,78:1
48,79:1
48,88:1
48,89:1
49,16:1
49,21:1
49,41:1
49,44:1
49,54:1
49,55:1
49,56:1
49,58:1
49,59:1
49,62:1
49,64:1
49,66:1
49,67:1
50,16:1
50,21:1
50,41:1
50,44:1
50,54:1
50,55:1
50,56:1
50,58:1
50,59:1
50,62:1
50,64:1
50,66:1
50,67:1
51,16:1
51,21:1
51,41:1
51,44:1
51,54:1
51,55:1
51,56:1
51,58:1
51,59:1
51,62:1
51,64:1
51,66:1
51,67:1
52,16:1
52,21:1
52,41:1
52,53:1
52,54:1
52,55:1
52,56:1
52,58:1
52,59:1
52,62:1
52,64:1
52,66:1
52,67:1
53,30:1
53,48:1
53,57:1
53,60:1
53,61:1
53,63:1
53,65:1
54,19:1
54,22:1
54,23:1
54,24:1
54,25:1
54,26:1
54,34:1
54,35:1
54,37:1
54,40:1
54,42:1
54,45:1
54,47:1
54,48:1
54,49:1
54,50:1
54,51:1
54,52:1
54,80:1
55,19:1
55,22:1
55,23:1
55,24:1
55,25:1
55,26:1
55,34:1
55,35:1
55,37:1
55,40:1
55,42:1
55,45:1
55,47:1
55,48:1
55,49:1
55,50:1
55,51:1
55,52:1
55,80:1
56,19:1
56,22:1
56,23:1
56,24:1
56,25:1
56,26:1
56,34:1
56,35:1
56,37:1
56,40:1
56,42:1
56,45:1
56,47:1
56,48:1
56,49:1
56,50:1
56,51:1
56,52:1
56,57:1
56,80:1
57,27:1
57,28:1
57,29:1
57,31:1
57,32:1
57,33:1
57,36:1
57,38:1
57,39:1
57,41:1
57,43:1
57,44:1
57,46:1
57,53:1
57,58:1
57,59:1
57,62:1
57,64:1
57,66:1
57,68:1
57,69:1
57,70:1
57,71:1
57,72:1
58,19:1
58,22:1
58,23:1
58,24:1
58,25:1
58,26:1
58,34:1
58,35:1
58,37:1
58,40:1
58,42:1
58,45:1
58,47:1
58,48:1
58,49:1
58,50:1
58,51:1
58,52:1
58,60:1
58,61:1
58,63:1
58,65:1
58,80:1
59,19:1
59,22:1
59,23:1
59,24:1
59,25:1
59,26:1
59,34:1
59,35:1
59,37:1
59,40:1
59,42:1
59,45:1
59,47:1
59,48:1
59,49:1
59,50:1
59,51:1
59,52:1
59,60:1
59,61:1
59,63:1
59,65:1
59,80:1
60,27:1
60,28:1
60,29:1
60,31:1
60,32:1
60,33:1
60,36:1
60,38:1
60,39:1
60,41:1
60,43:1
60,44:1
60,46:1
60,53:1
60,58:1
60,59:1
60,62:1
60,64:1
60,66:1
60,67:1
60,68:1
60,69:1
60,70:1
60,71:1
60,72:1
61,27:1
61,28:1
61,29:1
61,31:1
61,32:1
61,33:1
61,36:1
61,38:1
61,39:1
61,41:1
61,43:1
61,44:1
61,46:1
61,53:1
61,58:1
61,59:1
61,62:1
61,64:1
61,66:1
61,67:1
61,68:1
61,69:1
61,70:1
61,71:1
61,72:1
62,19:1
62,22:1
62,23:1
62,24:1
62,25:1
62,26:1
62,34:1
62,35:1
62,37:1
62,40:1
62,42:1
62,45:1
62,47:1
62,48:1
62,49:1
62,50:1
62,51:1
62,52:1
62,60:1
62,61:1
62,63:1
62,65:1
62,80:1
63,27:1
63,28:1
63,29:1
63,31:1
63,32:1
63,33:1
63,36:1
63,38:1
63,39:1
63,41:1
63,43:1
63,44:1
63,46:1
63,53:1
63,58:1
63,59:1
63,62:1
63,64:1
63,66:1
63,67:1
63,68:1
63,69:1
63,70:1
63,71:1
63,72:1
64,19:1
64,22:1
64,23:1
64,24:1
64,25:1
64,26:1
64,34:1
64,35:1
64,37:1
64,40:1
64,42:1
64,45:1
64,47:1
64,48:1
64,49:1
64,50:1
64,51:1
64,52:1
64,60:1
64,61:1
64,63:1
64,65:1
64,80:1
65,27:1
65,28:1
65,29:1
65,31:1
65,32:1
65,33:1
65,36:1
65,38:1
65,39:1
65,41:1
65,43:1
65,44:1
65,46:1
65,53:1
65,58:1
65,59:1
65,62:1
65,64:1
65,66:1
65,67:1
65,68:1
65,69:1
65,70:1
65,71:1
65,72:1
66,19:1
66,22:1
66,23:1
66,24:1
66,25:1
66,26:1
66,34:1
66,35:1
66,37:1
66,40:1
66,42:1
66,45:1
66,47:1
66,48:1
66,49:1
66,50:1
66,51:1
66,52:1
66,60:1
66,61:1
66,63:1
66,65:1
66,80:1
67,19:1
67,22:1
67,23:1
67,24:1
67,25:1
67,26:1
67,34:1
67,35:1
67,37:1
67,40:1
67,42:1
67,45:1
67,47:1
67,48:1
67,49:1
67,50:1
67,51:1
67,52:1
67,80:1
68,30:1
68,48:1
68,57:1
68,60:1
68,61:1
68,63:1
68,65:1
68,75:1
68,76:1
68,77:1
69,30:1
69,48:1
69,57:1
69,60:1
69,61:1
69,63:1
69,65:1
69,75:1
69,76:1
69,77:1
70,30:1
70,48:1
70,57:1
70,60:1
70,61:1
70,63:1
70,65:1
70,75:1
70,76:1
70,77:1
71,30:1
71,48:1
71,57:1
71,60:1
71,61:1
71,63:1
71,65:1
71,80:1
72,30:1
72,48:1
72,57:1
72,60:1
72,61:1
72,63:1
72,65:1
72,75:1
72,76:1
72,77:1
72,80:1
73,48:1
73,80:1
74,48:1
74,75:1
74,76:1
74,80:1
75,68:1
75,69:1
75,70:1
75,72:1
76,68:1
76,69:1
76,70:1
76,72:1
76,78:1
76,79:1
77,68:1
77,69:1
77,70:1
77,72:1
77,78:1
78,48:1
78,76:1
78,80:1
79,48:1
79,76:1
79,80:1
79,81:1
80,16:1
80,21:1
80,54:1
80,55:1
80,56:1
80,58:1
80,59:1
80,62:1
80,64:1
80,66:1
80,67:1
80,71:1
80,73:1
80,74:1
80,78:1
80,79:1
87,88:1
87,89:1
88,48:1
89,48:1

<setup times backward>
1,30:1
2,30:1
3,30:1
4,30:1
5,6:1
5,11:1
5,12:1
5,13:1
5,30:1
7,6:1
7,11:1
7,30:1
8,6:1
8,11:1
8,12:1
8,13:1
8,15:1
8,17:1
8,30:1
9,6:1
9,11:1
9,12:1
9,13:1
9,15:1
9,17:1
9,30:1
10,6:1
10,11:1
10,12:1
10,13:1
10,30:1
14,6:1
14,11:1
14,12:1
14,13:1
14,30:1
16,6:1
16,11:1
16,12:1
16,13:1
16,15:1
16,17:1
16,18:1
16,19:1
16,22:1
16,23:1
16,24:1
16,25:1
16,26:1
16,30:1
16,34:1
16,35:1
16,37:1
16,40:1
16,42:1
16,45:1
16,47:1
16,48:1
16,49:1
16,50:1
16,51:1
16,52:1
16,80:1
20,6:1
20,11:1
20,12:1
20,13:1
20,15:1
20,17:1
20,18:1
20,19:1
20,22:1
20,23:1
20,24:1
20,25:1
20,26:1
20,30:1
21,6:1
21,11:1
21,12:1
21,13:1
21,15:1
21,17:1
21,18:1
21,19:1
21,22:1
21,23:1
21,24:1
21,25:1
21,26:1
21,30:1
21,34:1
21,35:1
21,37:1
21,40:1
21,42:1
21,45:1
21,47:1
21,48:1
21,49:1
21,50:1
21,51:1
21,52:1
21,80:1
27,6:1
27,11:1
27,12:1
27,13:1
27,15:1
27,17:1
27,18:1
27,19:1
27,22:1
27,23:1
27,24:1
27,25:1
27,26:1
27,30:1
27,57:1
27,60:1
27,61:1
27,63:1
27,65:1
28,6:1
28,11:1
28,12:1
28,13:1
28,15:1
28,17:1
28,18:1
28,19:1
28,22:1
28,23:1
28,24:1
28,25:1
28,26:1
28,30:1
28,57:1
28,60:1
28,61:1
28,63:1
28,65:1
29,6:1
29,11:1
29,12:1
29,13:1
29,15:1
29,17:1
29,18:1
29,19:1
29,22:1
29,23:1
29,24:1
29,25:1
29,26:1
29,30:1
29,57:1
29,60:1
29,61:1
29,63:1
29,65:1
31,6:1
31,11:1
31,12:1
31,13:1
31,15:1
31,17:1
31,18:1
31,19:1
31,22:1
31,23:1
31,24:1
31,25:1
31,26:1
31,30:1
31,57:1
31,60:1
31,61:1
31,63:1
31,65:1
32,6:1
32,11:1
32,12:1
32,13:1
32,15:1
32,17:1
32,18:1
32,19:1
32,22:1
32,23:1
32,24:1
32,25:1
32,26:1
32,30:1
32,57:1
32,60:1
32,61:1
32,63:1
32,65:1
33,6:1
33,11:1
33,12:1
33,13:1
33,15:1
33,17:1
33,18:1
33,19:1
33,22:1
33,23:1
33,24:1
33,25:1
33,26:1
33,30:1
33,57:1
33,60:1
33,61:1
33,63:1
33,65:1
36,6:1
36,11:1
36,12:1
36,13:1
36,15:1
36,17:1
36,18:1
36,19:1
36,22:1
36,23:1
36,24:1
36,25:1
36,26:1
36,30:1
36,34:1
36,35:1
36,37:1
36,57:1
36,60:1
36,61:1
36,63:1
36,65:1
38,6:1
38,11:1
38,12:1
38,13:1
38,15:1
38,17:1
38,18:1
38,19:1
38,22:1
38,23:1
38,24:1
38,25:1
38,26:1
38,30:1
38,34:1
38,35:1
38,37:1
38,57:1
38,60:1
38,61:1
38,63:1
38,65:1
39,6:1
39,11:1
39,12:1
39,13:1
39,15:1
39,17:1
39,18:1
39,19:1
39,22:1
39,23:1
39,24:1
39,25:1
39,26:1
39,30:1
39,34:1
39,35:1
39,37:1
39,57:1
39,60:1
39,61:1
39,63:1
39,65:1
41,6:1
41,11:1
41,12:1
41,13:1
41,15:1
41,17:1
41,18:1
41,19:1
41,22:1
41,23:1
41,24:1
41,25:1
41,26:1
41,30:1
41,34:1
41,35:1
41,37:1
41,40:1
41,42:1
41,45:1
41,47:1
41,48:1
41,49:1
41,50:1
41,51:1
41,52:1
41,57:1
41,60:1
41,61:1
41,63:1
41,65:1
43,6:1
43,11:1
43,12:1
43,13:1
43,15:1
43,17:1
43,18:1
43,19:1
43,22:1
43,23:1
43,24:1
43,25:1
43,26:1
43,30:1
43,34:1
43,35:1
43,37:1
43,40:1
43,42:1
43,57:1
43,60:1
43,61:1
43,63:1
43,65:1
44,6:1
44,11:1
44,12:1
44,13:1
44,15:1
44,17:1
44,18:1
44,19:1
44,22:1
44,23:1
44,24:1
44,25:1
44,26:1
44,30:1
44,34:1
44,35:1
44,37:1
44,40:1
44,42:1
44,45:1
44,47:1
44,48:1
44,49:1
44,50:1
44,51:1
44,57:1
44,60:1
44,61:1
44,63:1
44,65:1
46,6:1
46,11:1
46,12:1
46,13:1
46,15:1
46,17:1
46,18:1
46,19:1
46,22:1
46,23:1
46,24:1
46,25:1
46,26:1
46,30:1
46,34:1
46,35:1
46,37:1
46,40:1
46,42:1
46,45:1
46,57:1
46,60:1
46,61:1
46,63:1
46,65:1
53,6:1
53,11:1
53,12:1
53,13:1
53,15:1
53,17:1
53,18:1
53,19:1
53,22:1
53,23:1
53,24:1
53,25:1
53,26:1
53,30:1
53,34:1
53,35:1
53,37:1
53,40:1
53,42:1
53,45:1
53,47:1
53,48:1
53,49:1
53,50:1
53,51:1
53,52:1
53,57:1
53,60:1
53,61:1
53,63:1
53,65:1
54,6:1
54,11:1
54,12:1
54,13:1
54,15:1
54,17:1
54,18:1
54,19:1
54,22:1
54,23:1
54,24:1
54,25:1
54,26:1
54,30:1
54,34:1
54,35:1
54,37:1
54,40:1
54,42:1
54,45:1
54,47:1
54,48:1
54,49:1
54,50:1
54,51:1
54,52:1
54,80:1
55,6:1
55,11:1
55,12:1
55,13:1
55,15:1
55,17:1
55,18:1
55,19:1
55,22:1
55,23:1
55,24:1
55,25:1
55,26:1
55,30:1
55,34:1
55,35:1
55,37:1
55,40:1
55,42:1
55,45:1
55,47:1
55,48:1
55,49:1
55,50:1
55,51:1
55,52:1
55,80:1
56,6:1
56,11:1
56,12:1
56,13:1
56,15:1
56,17:1
56,18:1
56,19:1
56,22:1
56,23:1
56,24:1
56,25:1
56,26:1
56,30:1
56,34:1
56,35:1
56,37:1
56,40:1
56,42:1
56,45:1
56,47:1
56,48:1
56,49:1
56,50:1
56,51:1
56,52:1
56,80:1
58,6:1
58,11:1
58,12:1
58,13:1
58,15:1
58,17:1
58,18:1
58,19:1
58,22:1
58,23:1
58,24:1
58,25:1
58,26:1
58,30:1
58,34:1
58,35:1
58,37:1
58,40:1
58,42:1
58,45:1
58,47:1
58,48:1
58,49:1
58,50:1
58,51:1
58,52:1
58,57:1
58,60:1
58,61:1
58,63:1
58,65:1
58,80:1
59,6:1
59,11:1
59,12:1
59,13:1
59,15:1
59,17:1
59,18:1
59,19:1
59,22:1
59,23:1
59,24:1
59,25:1
59,26:1
59,30:1
59,34:1
59,35:1
59,37:1
59,40:1
59,42:1
59,45:1
59,47:1
59,48:1
59,49:1
59,50:1
59,51:1
59,52:1
59,57:1
59,60:1
59,61:1
59,63:1
59,65:1
59,80:1
62,6:1
62,11:1
62,12:1
62,13:1
62,15:1
62,17:1
62,18:1
62,19:1
62,22:1
62,23:1
62,24:1
62,25:1
62,26:1
62,30:1
62,34:1
62,35:1
62,37:1
62,40:1
62,42:1
62,45:1
62,47:1
62,48:1
62,49:1
62,50:1
62,51:1
62,52:1
62,57:1
62,60:1
62,61:1
62,63:1
62,65:1
62,80:1
64,6:1
64,11:1
64,12:1
64,13:1
64,15:1
64,17:1
64,18:1
64,19:1
64,22:1
64,23:1
64,24:1
64,25:1
64,26:1
64,30:1
64,34:1
64,35:1
64,37:1
64,40:1
64,42:1
64,45:1
64,47:1
64,48:1
64,49:1
64,50:1
64,51:1
64,52:1
64,57:1
64,60:1
64,61:1
64,63:1
64,65:1
64,80:1
66,6:1
66,11:1
66,12:1
66,13:1
66,15:1
66,17:1
66,18:1
66,19:1
66,22:1
66,23:1
66,24:1
66,25:1
66,26:1
66,30:1
66,34:1
66,35:1
66,37:1
66,40:1
66,42:1
66,45:1
66,47:1
66,48:1
66,49:1
66,50:1
66,51:1
66,52:1
66,57:1
66,60:1
66,61:1
66,63:1
66,65:1
66,80:1
67,6:1
67,11:1
67,12:1
67,13:1
67,15:1
67,17:1
67,18:1
67,19:1
67,22:1
67,23:1
67,24:1
67,25:1
67,26:1
67,30:1
67,34:1
67,35:1
67,37:1
67,40:1
67,42:1
67,45:1
67,47:1
67,48:1
67,49:1
67,50:1
67,51:1
67,52:1
67,57:1
67,60:1
67,61:1
67,63:1
67,65:1
67,80:1
68,6:1
68,11:1
68,12:1
68,13:1
68,15:1
68,17:1
68,18:1
68,19:1
68,22:1
68,23:1
68,24:1
68,25:1
68,26:1
68,30:1
68,34:1
68,35:1
68,37:1
68,40:1
68,42:1
68,45:1
68,47:1
68,48:1
68,49:1
68,50:1
68,51:1
68,52:1
68,57:1
68,60:1
68,61:1
68,63:1
68,65:1
68,75:1
68,76:1
68,77:1
69,6:1
69,11:1
69,12:1
69,13:1
69,15:1
69,17:1
69,18:1
69,19:1
69,22:1
69,23:1
69,24:1
69,25:1
69,26:1
69,30:1
69,34:1
69,35:1
69,37:1
69,40:1
69,42:1
69,45:1
69,47:1
69,48:1
69,49:1
69,50:1
69,51:1
69,52:1
69,57:1
69,60:1
69,61:1
69,63:1
69,65:1
69,75:1
69,76:1
69,77:1
70,6:1
70,11:1
70,12:1
70,13:1
70,15:1
70,17:1
70,18:1
70,19:1
70,22:1
70,23:1
70,24:1
70,25:1
70,26:1
70,30:1
70,34:1
70,35:1
70,37:1
70,40:1
70,42:1
70,45:1
70,47:1
70,48:1
70,49:1
70,50:1
70,51:1
70,52:1
70,57:1
70,60:1
70,61:1
70,63:1
70,65:1
70,75:1
70,76:1
70,77:1
71,6:1
71,11:1
71,12:1
71,13:1
71,15:1
71,17:1
71,18:1
71,19:1
71,22:1
71,23:1
71,24:1
71,25:1
71,26:1
71,30:1
71,34:1
71,35:1
71,37:1
71,40:1
71,42:1
71,45:1
71,47:1
71,48:1
71,49:1
71,50:1
71,51:1
71,52:1
71,57:1
71,60:1
71,61:1
71,63:1
71,65:1
71,80:1
72,6:1
72,11:1
72,12:1
72,13:1
72,15:1
72,17:1
72,18:1
72,19:1
72,22:1
72,23:1
72,24:1
72,25:1
72,26:1
72,30:1
72,34:1
72,35:1
72,37:1
72,40:1
72,42:1
72,45:1
72,47:1
72,48:1
72,49:1
72,50:1
72,51:1
72,52:1
72,57:1
72,60:1
72,61:1
72,63:1
72,65:1
72,75:1
72,76:1
72,77:1
73,6:1
73,11:1
73,12:1
73,13:1
73,15:1
73,17:1
73,18:1
73,19:1
73,22:1
73,23:1
73,24:1
73,25:1
73,26:1
73,30:1
73,34:1
73,35:1
73,37:1
73,40:1
73,42:1
73,45:1
73,47:1
73,48:1
73,49:1
73,50:1
73,51:1
73,52:1
73,57:1
73,60:1
73,61:1
73,63:1
73,65:1
73,80:1
74,6:1
74,11:1
74,12:1
74,13:1
74,15:1
74,17:1
74,18:1
74,19:1
74,22:1
74,23:1
74,24:1
74,25:1
74,26:1
74,30:1
74,34:1
74,35:1
74,37:1
74,40:1
74,42:1
74,45:1
74,47:1
74,48:1
74,49:1
74,50:1
74,51:1
74,52:1
74,57:1
74,60:1
74,61:1
74,63:1
74,65:1
74,80:1
78,6:1
78,11:1
78,12:1
78,13:1
78,15:1
78,17:1
78,18:1
78,19:1
78,22:1
78,23:1
78,24:1
78,25:1
78,26:1
78,30:1
78,34:1
78,35:1
78,37:1
78,40:1
78,42:1
78,45:1
78,47:1
78,48:1
78,49:1
78,50:1
78,51:1
78,52:1
78,57:1
78,60:1
78,61:1
78,63:1
78,65:1
78,75:1
78,76:1
78,77:1
78,80:1
79,6:1
79,11:1
79,12:1
79,13:1
79,15:1
79,17:1
79,18:1
79,19:1
79,22:1
79,23:1
79,24:1
79,25:1
79,26:1
79,30:1
79,34:1
79,35:1
79,37:1
79,40:1
79,42:1
79,45:1
79,47:1
79,48:1
79,49:1
79,50:1
79,51:1
79,52:1
79,57:1
79,60:1
79,61:1
79,63:1
79,65:1
79,75:1
79,76:1
79,77:1
79,80:1
88,6:1
88,11:1
88,12:1
88,13:1
88,15:1
88,17:1
88,18:1
88,19:1
88,22:1
88,23:1
88,24:1
88,25:1
88,26:1
88,30:1
88,34:1
88,35:1
88,37:1
88,40:1
88,42:1
88,45:1
88,47:1
88,48:1
88,49:1
88,50:1
88,51:1
88,52:1
88,57:1
88,60:1
88,61:1
88,63:1
88,65:1
88,75:1
88,76:1
88,77:1
88,80:1
88,81:1
88,82:1
88,83:1
88,84:1
88,85:1
88,86:1
88,87:1
89,6:1
89,11:1
89,12:1
89,13:1
89,15:1
89,17:1
89,18:1
89,19:1
89,22:1
89,23:1
89,24:1
89,25:1
89,26:1
89,30:1
89,34:1
89,35:1
89,37:1
89,40:1
89,42:1
89,45:1
89,47:1
89,48:1
89,49:1
89,50:1
89,51:1
89,52:1
89,57:1
89,60:1
89,61:1
89,63:1
89,65:1
89,75:1
89,76:1
89,77:1
89,80:1
89,81:1
89,82:1
89,83:1
89,84:1
89,85:1
89,86:1
89,87:1

<end>

<optimal SALBP-1 value>
44


<rand seed>
467321153

<Lower Bounds>
Lm1=41
Lms1=41
Lm2=40
Lm3=40
Lm4=41
Best=41

<Optimal Stations (Iterations: 10)>
53
